p cnf 967 2484
51 -2 -1 0
-51 2 0
-51 1 0
52 -51 -700 0
-52 51 0
-52 700 0
53 -701 -702 0
-53 701 0
-53 702 0
54 -53 -703 0
-54 53 0
-54 703 0
55 -704 -705 0
-55 704 0
-55 705 0
56 -8 -706 0
-56 8 0
-56 706 0
57 -56 -707 0
-57 56 0
-57 707 0
58 -708 -55 0
-58 708 0
-58 55 0
59 -11 -10 0
-59 11 0
-59 10 0
60 -59 -12 0
-60 59 0
-60 12 0
61 -709 -58 0
-61 709 0
-61 58 0
62 -14 -13 0
-62 14 0
-62 13 0
63 -62 -710 0
-63 62 0
-63 710 0
64 -711 -61 0
-64 711 0
-64 61 0
65 -712 -713 0
-65 712 0
-65 713 0
66 -65 -714 0
-66 65 0
-66 714 0
67 -715 -64 0
-67 715 0
-67 64 0
68 -716 -717 0
-68 716 0
-68 717 0
69 -68 -718 0
-69 68 0
-69 718 0
70 -719 -67 0
-70 719 0
-70 67 0
71 -19 -717 0
-71 19 0
-71 717 0
72 -71 -720 0
-72 71 0
-72 720 0
73 -721 -70 0
-73 721 0
-73 70 0
74 -720 -712 0
-74 720 0
-74 712 0
75 -74 -722 0
-75 74 0
-75 722 0
76 -723 -73 0
-76 723 0
-76 73 0
77 -724 -725 0
-77 724 0
-77 725 0
78 -77 -23 0
-78 77 0
-78 23 0
79 -726 -76 0
-79 726 0
-79 76 0
80 -25 -24 0
-80 25 0
-80 24 0
81 -80 -720 0
-81 80 0
-81 720 0
82 -727 -79 0
-82 727 0
-82 79 0
83 -728 -729 0
-83 728 0
-83 729 0
84 -83 -28 0
-84 83 0
-84 28 0
85 -730 -82 0
-85 730 0
-85 82 0
86 -731 -2 0
-86 731 0
-86 2 0
87 -86 -30 0
-87 86 0
-87 30 0
88 -732 -85 0
-88 732 0
-88 85 0
89 -31 -17 0
-89 31 0
-89 17 0
90 -89 -32 0
-90 89 0
-90 32 0
91 -733 -88 0
-91 733 0
-91 88 0
92 -11 -7 0
-92 11 0
-92 7 0
93 -92 -3 0
-93 92 0
-93 3 0
94 -734 -91 0
-94 734 0
-94 91 0
95 -33 -731 0
-95 33 0
-95 731 0
96 -95 -34 0
-96 95 0
-96 34 0
97 -735 -94 0
-97 735 0
-97 94 0
98 -736 -737 0
-98 736 0
-98 737 0
99 -98 -738 0
-99 98 0
-99 738 0
100 -739 -97 0
-100 739 0
-100 97 0
101 -740 -22 0
-101 740 0
-101 22 0
102 -101 -5 0
-102 101 0
-102 5 0
103 -741 -100 0
-103 741 0
-103 100 0
104 -37 -736 0
-104 37 0
-104 736 0
105 -104 -38 0
-105 104 0
-105 38 0
106 -742 -103 0
-106 742 0
-106 103 0
107 -37 -725 0
-107 37 0
-107 725 0
108 -107 -5 0
-108 107 0
-108 5 0
109 -743 -106 0
-109 743 0
-109 106 0
110 -744 -702 0
-110 744 0
-110 702 0
111 -110 -745 0
-111 110 0
-111 745 0
112 -746 -109 0
-112 746 0
-112 109 0
113 -23 -12 0
-113 23 0
-113 12 0
114 -113 -15 0
-114 113 0
-114 15 0
115 -747 -112 0
-115 747 0
-115 112 0
116 -35 -710 0
-116 35 0
-116 710 0
117 -116 -32 0
-117 116 0
-117 32 0
118 -748 -115 0
-118 748 0
-118 115 0
119 -749 -16 0
-119 749 0
-119 16 0
120 -119 -35 0
-120 119 0
-120 35 0
121 -750 -118 0
-121 750 0
-121 118 0
122 -737 -713 0
-122 737 0
-122 713 0
123 -122 -12 0
-123 122 0
-123 12 0
124 -751 -121 0
-124 751 0
-124 121 0
125 -752 -753 0
-125 752 0
-125 753 0
126 -125 -754 0
-126 125 0
-126 754 0
127 -755 -124 0
-127 755 0
-127 124 0
128 -40 -18 0
-128 40 0
-128 18 0
129 -128 -737 0
-129 128 0
-129 737 0
130 -756 -127 0
-130 756 0
-130 127 0
131 -757 -703 0
-131 757 0
-131 703 0
132 -131 -15 0
-132 131 0
-132 15 0
133 -758 -130 0
-133 758 0
-133 130 0
134 -42 -759 0
-134 42 0
-134 759 0
135 -134 -760 0
-135 134 0
-135 760 0
136 -761 -133 0
-136 761 0
-136 133 0
137 -729 -14 0
-137 729 0
-137 14 0
138 -137 -754 0
-138 137 0
-138 754 0
139 -762 -136 0
-139 762 0
-139 136 0
140 -17 -712 0
-140 17 0
-140 712 0
141 -140 -738 0
-141 140 0
-141 738 0
142 -763 -139 0
-142 763 0
-142 139 0
143 -764 -765 0
-143 764 0
-143 765 0
144 -143 -31 0
-144 143 0
-144 31 0
145 -766 -142 0
-145 766 0
-145 142 0
146 -45 -44 0
-146 45 0
-146 44 0
147 -146 -767 0
-147 146 0
-147 767 0
148 -768 -145 0
-148 768 0
-148 145 0
149 -46 -722 0
-149 46 0
-149 722 0
150 -149 -3 0
-150 149 0
-150 3 0
151 -769 -148 0
-151 769 0
-151 148 0
152 -770 -717 0
-152 770 0
-152 717 0
153 -152 -26 0
-153 152 0
-153 26 0
154 -771 -151 0
-154 771 0
-154 151 0
155 -23 -14 0
-155 23 0
-155 14 0
156 -155 -41 0
-156 155 0
-156 41 0
157 -772 -154 0
-157 772 0
-157 154 0
158 -40 -2 0
-158 40 0
-158 2 0
159 -158 -17 0
-159 158 0
-159 17 0
160 -773 -157 0
-160 773 0
-160 157 0
161 -716 -10 0
-161 716 0
-161 10 0
162 -161 -700 0
-162 161 0
-162 700 0
163 -774 -160 0
-163 774 0
-163 160 0
164 -775 -6 0
-164 775 0
-164 6 0
165 -164 -38 0
-165 164 0
-165 38 0
166 -776 -163 0
-166 776 0
-166 163 0
167 -41 -745 0
-167 41 0
-167 745 0
168 -167 -703 0
-168 167 0
-168 703 0
169 -777 -166 0
-169 777 0
-169 166 0
170 -778 -7 0
-170 778 0
-170 7 0
171 -170 -779 0
-171 170 0
-171 779 0
172 -780 -169 0
-172 780 0
-172 169 0
173 -731 -765 0
-173 731 0
-173 765 0
174 -173 -738 0
-174 173 0
-174 738 0
175 -781 -172 0
-175 781 0
-175 172 0
176 -767 -16 0
-176 767 0
-176 16 0
177 -176 -5 0
-177 176 0
-177 5 0
178 -782 -175 0
-178 782 0
-178 175 0
179 -778 -713 0
-179 778 0
-179 713 0
180 -179 -17 0
-180 179 0
-180 17 0
181 -783 -178 0
-181 783 0
-181 178 0
182 -15 -770 0
-182 15 0
-182 770 0
183 -182 -760 0
-183 182 0
-183 760 0
184 -784 -181 0
-184 784 0
-184 181 0
185 -749 -22 0
-185 749 0
-185 22 0
186 -185 -9 0
-186 185 0
-186 9 0
187 -785 -184 0
-187 785 0
-187 184 0
188 -26 -716 0
-188 26 0
-188 716 0
189 -188 -753 0
-189 188 0
-189 753 0
190 -786 -187 0
-190 786 0
-190 187 0
191 -787 -27 0
-191 787 0
-191 27 0
192 -191 -788 0
-192 191 0
-192 788 0
193 -789 -190 0
-193 789 0
-193 190 0
194 -42 -752 0
-194 42 0
-194 752 0
195 -194 -6 0
-195 194 0
-195 6 0
196 -790 -193 0
-196 790 0
-196 193 0
197 -736 -30 0
-197 736 0
-197 30 0
198 -197 -38 0
-198 197 0
-198 38 0
199 -791 -196 0
-199 791 0
-199 196 0
200 -775 -716 0
-200 775 0
-200 716 0
201 -200 -15 0
-201 200 0
-201 15 0
202 -792 -199 0
-202 792 0
-202 199 0
203 -736 -13 0
-203 736 0
-203 13 0
204 -203 -788 0
-204 203 0
-204 788 0
205 -793 -202 0
-205 793 0
-205 202 0
206 -39 -724 0
-206 39 0
-206 724 0
207 -206 -703 0
-207 206 0
-207 703 0
208 -794 -205 0
-208 794 0
-208 205 0
209 -39 -795 0
-209 39 0
-209 795 0
210 -209 -753 0
-210 209 0
-210 753 0
211 -796 -208 0
-211 796 0
-211 208 0
212 -702 -717 0
-212 702 0
-212 717 0
213 -212 -744 0
-213 212 0
-213 744 0
214 -797 -211 0
-214 797 0
-214 211 0
215 -724 -7 0
-215 724 0
-215 7 0
216 -215 -21 0
-216 215 0
-216 21 0
217 -798 -214 0
-217 798 0
-217 214 0
218 -754 -799 0
-218 754 0
-218 799 0
219 -218 -800 0
-219 218 0
-219 800 0
220 -801 -217 0
-220 801 0
-220 217 0
221 -712 -717 0
-221 712 0
-221 717 0
222 -221 -28 0
-222 221 0
-222 28 0
223 -802 -220 0
-223 802 0
-223 220 0
224 -749 -9 0
-224 749 0
-224 9 0
225 -224 -35 0
-225 224 0
-225 35 0
226 -803 -223 0
-226 803 0
-226 223 0
227 -50 -39 0
-227 50 0
-227 39 0
228 -227 -788 0
-228 227 0
-228 788 0
229 -804 -226 0
-229 804 0
-229 226 0
230 -779 -713 0
-230 779 0
-230 713 0
231 -230 -788 0
-231 230 0
-231 788 0
232 -805 -229 0
-232 805 0
-232 229 0
233 -707 -2 0
-233 707 0
-233 2 0
234 -233 -14 0
-234 233 0
-234 14 0
235 -806 -232 0
-235 806 0
-235 232 0
236 -40 -39 0
-236 40 0
-236 39 0
237 -236 -738 0
-237 236 0
-237 738 0
238 -807 -235 0
-238 807 0
-238 235 0
239 -18 -717 0
-239 18 0
-239 717 0
240 -239 -19 0
-240 239 0
-240 19 0
241 -808 -238 0
-241 808 0
-241 238 0
242 -759 -718 0
-242 759 0
-242 718 0
243 -242 -740 0
-243 242 0
-243 740 0
244 -809 -241 0
-244 809 0
-244 241 0
245 -30 -14 0
-245 30 0
-245 14 0
246 -245 -700 0
-246 245 0
-246 700 0
247 -810 -244 0
-247 810 0
-247 244 0
248 -8 -702 0
-248 8 0
-248 702 0
249 -248 -787 0
-249 248 0
-249 787 0
250 -811 -247 0
-250 811 0
-250 247 0
251 -42 -701 0
-251 42 0
-251 701 0
252 -251 -23 0
-252 251 0
-252 23 0
253 -812 -250 0
-253 812 0
-253 250 0
254 -731 -5 0
-254 731 0
-254 5 0
255 -254 -757 0
-255 254 0
-255 757 0
256 -813 -253 0
-256 813 0
-256 253 0
257 -714 -700 0
-257 714 0
-257 700 0
258 -257 -754 0
-258 257 0
-258 754 0
259 -814 -256 0
-259 814 0
-259 256 0
260 -43 -702 0
-260 43 0
-260 702 0
261 -260 -775 0
-261 260 0
-261 775 0
262 -815 -259 0
-262 815 0
-262 259 0
263 -764 -27 0
-263 764 0
-263 27 0
264 -263 -21 0
-264 263 0
-264 21 0
265 -816 -262 0
-265 816 0
-265 262 0
266 -45 -2 0
-266 45 0
-266 2 0
267 -266 -14 0
-267 266 0
-267 14 0
268 -817 -265 0
-268 817 0
-268 265 0
269 -767 -707 0
-269 767 0
-269 707 0
270 -269 -818 0
-270 269 0
-270 818 0
271 -819 -268 0
-271 819 0
-271 268 0
272 -820 -749 0
-272 820 0
-272 749 0
273 -272 -788 0
-273 272 0
-273 788 0
274 -821 -271 0
-274 821 0
-274 271 0
275 -729 -18 0
-275 729 0
-275 18 0
276 -275 -32 0
-276 275 0
-276 32 0
277 -822 -274 0
-277 822 0
-277 274 0
278 -35 -718 0
-278 35 0
-278 718 0
279 -278 -740 0
-279 278 0
-279 740 0
280 -823 -277 0
-280 823 0
-280 277 0
281 -795 -717 0
-281 795 0
-281 717 0
282 -281 -740 0
-282 281 0
-282 740 0
283 -824 -280 0
-283 824 0
-283 280 0
284 -27 -701 0
-284 27 0
-284 701 0
285 -284 -42 0
-285 284 0
-285 42 0
286 -825 -283 0
-286 825 0
-286 283 0
287 -826 -16 0
-287 826 0
-287 16 0
288 -287 -3 0
-288 287 0
-288 3 0
289 -827 -286 0
-289 827 0
-289 286 0
290 -39 -707 0
-290 39 0
-290 707 0
291 -290 -700 0
-291 290 0
-291 700 0
292 -828 -289 0
-292 828 0
-292 289 0
293 -18 -770 0
-293 18 0
-293 770 0
294 -293 -47 0
-294 293 0
-294 47 0
295 -829 -292 0
-295 829 0
-295 292 0
296 -720 -8 0
-296 720 0
-296 8 0
297 -296 -41 0
-297 296 0
-297 41 0
298 -830 -295 0
-298 830 0
-298 295 0
299 -33 -707 0
-299 33 0
-299 707 0
300 -299 -12 0
-300 299 0
-300 12 0
301 -831 -298 0
-301 831 0
-301 298 0
302 -39 -20 0
-302 39 0
-302 20 0
303 -302 -832 0
-303 302 0
-303 832 0
304 -833 -301 0
-304 833 0
-304 301 0
305 -749 -718 0
-305 749 0
-305 718 0
306 -305 -710 0
-306 305 0
-306 710 0
307 -834 -304 0
-307 834 0
-307 304 0
308 -15 -795 0
-308 15 0
-308 795 0
309 -308 -32 0
-309 308 0
-309 32 0
310 -835 -307 0
-310 835 0
-310 307 0
311 -737 -11 0
-311 737 0
-311 11 0
312 -311 -49 0
-312 311 0
-312 49 0
313 -836 -310 0
-313 836 0
-313 310 0
314 -50 -738 0
-314 50 0
-314 738 0
315 -314 -32 0
-315 314 0
-315 32 0
316 -837 -313 0
-316 837 0
-316 313 0
317 -24 -770 0
-317 24 0
-317 770 0
318 -317 -26 0
-318 317 0
-318 26 0
319 -838 -316 0
-319 838 0
-319 316 0
320 -757 -9 0
-320 757 0
-320 9 0
321 -320 -6 0
-321 320 0
-321 6 0
322 -839 -319 0
-322 839 0
-322 319 0
323 -40 -744 0
-323 40 0
-323 744 0
324 -323 -720 0
-324 323 0
-324 720 0
325 -840 -322 0
-325 840 0
-325 322 0
326 -18 -8 0
-326 18 0
-326 8 0
327 -326 -760 0
-327 326 0
-327 760 0
328 -841 -325 0
-328 841 0
-328 325 0
329 -27 -722 0
-329 27 0
-329 722 0
330 -329 -3 0
-330 329 0
-330 3 0
331 -842 -328 0
-331 842 0
-331 328 0
332 -37 -26 0
-332 37 0
-332 26 0
333 -332 -23 0
-333 332 0
-333 23 0
334 -843 -331 0
-334 843 0
-334 331 0
335 -28 -27 0
-335 28 0
-335 27 0
336 -335 -800 0
-336 335 0
-336 800 0
337 -844 -334 0
-337 844 0
-337 334 0
338 -832 -13 0
-338 832 0
-338 13 0
339 -338 -757 0
-339 338 0
-339 757 0
340 -845 -337 0
-340 845 0
-340 337 0
341 -722 -713 0
-341 722 0
-341 713 0
342 -341 -818 0
-342 341 0
-342 818 0
343 -846 -340 0
-343 846 0
-343 340 0
344 -818 -759 0
-344 818 0
-344 759 0
345 -344 -15 0
-345 344 0
-345 15 0
346 -847 -343 0
-346 847 0
-346 343 0
347 -848 -22 0
-347 848 0
-347 22 0
348 -347 -35 0
-348 347 0
-348 35 0
349 -849 -346 0
-349 849 0
-349 346 0
350 -737 -12 0
-350 737 0
-350 12 0
351 -350 -775 0
-351 350 0
-351 775 0
352 -850 -349 0
-352 850 0
-352 349 0
353 -752 -701 0
-353 752 0
-353 701 0
354 -353 -738 0
-354 353 0
-354 738 0
355 -851 -352 0
-355 851 0
-355 352 0
356 -749 -10 0
-356 749 0
-356 10 0
357 -356 -15 0
-357 356 0
-357 15 0
358 -852 -355 0
-358 852 0
-358 355 0
359 -848 -722 0
-359 848 0
-359 722 0
360 -359 -753 0
-360 359 0
-360 753 0
361 -853 -358 0
-361 853 0
-361 358 0
362 -779 -1 0
-362 779 0
-362 1 0
363 -362 -740 0
-363 362 0
-363 740 0
364 -854 -361 0
-364 854 0
-364 361 0
365 -40 -736 0
-365 40 0
-365 736 0
366 -365 -34 0
-366 365 0
-366 34 0
367 -855 -364 0
-367 855 0
-367 364 0
368 -767 -13 0
-368 767 0
-368 13 0
369 -368 -800 0
-369 368 0
-369 800 0
370 -856 -367 0
-370 856 0
-370 367 0
371 -716 -8 0
-371 716 0
-371 8 0
372 -371 -703 0
-372 371 0
-372 703 0
373 -857 -370 0
-373 857 0
-373 370 0
374 -729 -779 0
-374 729 0
-374 779 0
375 -374 -42 0
-375 374 0
-375 42 0
376 -858 -373 0
-376 858 0
-376 373 0
377 -19 -9 0
-377 19 0
-377 9 0
378 -377 -728 0
-378 377 0
-378 728 0
379 -859 -376 0
-379 859 0
-379 376 0
380 -718 -4 0
-380 718 0
-380 4 0
381 -380 -700 0
-381 380 0
-381 700 0
382 -860 -379 0
-382 860 0
-382 379 0
383 -759 -795 0
-383 759 0
-383 795 0
384 -383 -710 0
-384 383 0
-384 710 0
385 -861 -382 0
-385 861 0
-385 382 0
386 -7 -717 0
-386 7 0
-386 717 0
387 -386 -701 0
-387 386 0
-387 701 0
388 -862 -385 0
-388 862 0
-388 385 0
389 -40 -17 0
-389 40 0
-389 17 0
390 -389 -49 0
-390 389 0
-390 49 0
391 -863 -388 0
-391 863 0
-391 388 0
392 -22 -1 0
-392 22 0
-392 1 0
393 -392 -2 0
-393 392 0
-393 2 0
394 -864 -391 0
-394 864 0
-394 391 0
395 -818 -37 0
-395 818 0
-395 37 0
396 -395 -48 0
-396 395 0
-396 48 0
397 -865 -394 0
-397 865 0
-397 394 0
398 -329 -710 0
-398 329 0
-398 710 0
399 -866 -397 0
-399 866 0
-399 397 0
400 -820 -4 0
-400 820 0
-400 4 0
401 -400 -754 0
-401 400 0
-401 754 0
402 -867 -399 0
-402 867 0
-402 399 0
403 -44 -770 0
-403 44 0
-403 770 0
404 -403 -49 0
-404 403 0
-404 49 0
405 -868 -402 0
-405 868 0
-405 402 0
406 -23 -707 0
-406 23 0
-406 707 0
407 -406 -41 0
-407 406 0
-407 41 0
408 -869 -405 0
-408 869 0
-408 405 0
409 -23 -700 0
-409 23 0
-409 700 0
410 -409 -738 0
-410 409 0
-410 738 0
411 -870 -408 0
-411 870 0
-411 408 0
412 -724 -702 0
-412 724 0
-412 702 0
413 -412 -28 0
-413 412 0
-413 28 0
414 -871 -411 0
-414 871 0
-414 411 0
415 -826 -33 0
-415 826 0
-415 33 0
416 -415 -21 0
-416 415 0
-416 21 0
417 -872 -414 0
-417 872 0
-417 414 0
418 -44 -749 0
-418 44 0
-418 749 0
419 -418 -45 0
-419 418 0
-419 45 0
420 -873 -417 0
-420 873 0
-420 417 0
421 -29 -722 0
-421 29 0
-421 722 0
422 -421 -818 0
-422 421 0
-422 818 0
423 -874 -420 0
-423 874 0
-423 420 0
424 -45 -40 0
-424 45 0
-424 40 0
425 -424 -3 0
-425 424 0
-425 3 0
426 -875 -423 0
-426 875 0
-426 423 0
427 -752 -3 0
-427 752 0
-427 3 0
428 -427 -38 0
-428 427 0
-428 38 0
429 -876 -426 0
-429 876 0
-429 426 0
430 -44 -8 0
-430 44 0
-430 8 0
431 -430 -6 0
-431 430 0
-431 6 0
432 -877 -429 0
-432 877 0
-432 429 0
433 -40 -36 0
-433 40 0
-433 36 0
434 -433 -32 0
-434 433 0
-434 32 0
435 -878 -432 0
-435 878 0
-435 432 0
436 -725 -11 0
-436 725 0
-436 11 0
437 -436 -32 0
-437 436 0
-437 32 0
438 -879 -435 0
-438 879 0
-438 435 0
439 -22 -707 0
-439 22 0
-439 707 0
440 -439 -767 0
-440 439 0
-440 767 0
441 -880 -438 0
-441 880 0
-441 438 0
442 -752 -18 0
-442 752 0
-442 18 0
443 -442 -36 0
-443 442 0
-443 36 0
444 -881 -441 0
-444 881 0
-444 441 0
445 -820 -724 0
-445 820 0
-445 724 0
446 -445 -725 0
-446 445 0
-446 725 0
447 -882 -444 0
-447 882 0
-447 444 0
448 -731 -13 0
-448 731 0
-448 13 0
449 -448 -41 0
-449 448 0
-449 41 0
450 -883 -447 0
-450 883 0
-450 447 0
451 -50 -767 0
-451 50 0
-451 767 0
452 -451 -41 0
-452 451 0
-452 41 0
453 -884 -450 0
-453 884 0
-453 450 0
454 -826 -24 0
-454 826 0
-454 24 0
455 -454 -6 0
-455 454 0
-455 6 0
456 -885 -453 0
-456 885 0
-456 453 0
457 -736 -26 0
-457 736 0
-457 26 0
458 -457 -767 0
-458 457 0
-458 767 0
459 -886 -456 0
-459 886 0
-459 456 0
460 -714 -10 0
-460 714 0
-460 10 0
461 -460 -42 0
-461 460 0
-461 42 0
462 -887 -459 0
-462 887 0
-462 459 0
463 -778 -725 0
-463 778 0
-463 725 0
464 -463 -20 0
-464 463 0
-464 20 0
465 -888 -462 0
-465 888 0
-465 462 0
466 -42 -738 0
-466 42 0
-466 738 0
467 -466 -757 0
-467 466 0
-467 757 0
468 -889 -465 0
-468 889 0
-468 465 0
469 -43 -779 0
-469 43 0
-469 779 0
470 -469 -31 0
-470 469 0
-470 31 0
471 -890 -468 0
-471 890 0
-471 468 0
472 -820 -2 0
-472 820 0
-472 2 0
473 -472 -38 0
-473 472 0
-473 38 0
474 -891 -471 0
-474 891 0
-474 471 0
475 -848 -753 0
-475 848 0
-475 753 0
476 -475 -41 0
-476 475 0
-476 41 0
477 -892 -474 0
-477 892 0
-477 474 0
478 -765 -24 0
-478 765 0
-478 24 0
479 -478 -725 0
-479 478 0
-479 725 0
480 -893 -477 0
-480 893 0
-480 477 0
481 -22 -2 0
-481 22 0
-481 2 0
482 -481 -736 0
-482 481 0
-482 736 0
483 -894 -480 0
-483 894 0
-483 480 0
484 -764 -29 0
-484 764 0
-484 29 0
485 -484 -728 0
-485 484 0
-485 728 0
486 -895 -483 0
-486 895 0
-486 483 0
487 -37 -795 0
-487 37 0
-487 795 0
488 -487 -720 0
-488 487 0
-488 720 0
489 -896 -486 0
-489 896 0
-489 486 0
490 -787 -702 0
-490 787 0
-490 702 0
491 -490 -39 0
-491 490 0
-491 39 0
492 -897 -489 0
-492 897 0
-492 489 0
493 -826 -759 0
-493 826 0
-493 759 0
494 -493 -9 0
-494 493 0
-494 9 0
495 -898 -492 0
-495 898 0
-495 492 0
496 -24 -707 0
-496 24 0
-496 707 0
497 -496 -703 0
-497 496 0
-497 703 0
498 -899 -495 0
-498 899 0
-498 495 0
499 -20 -2 0
-499 20 0
-499 2 0
500 -499 -700 0
-500 499 0
-500 700 0
501 -900 -498 0
-501 900 0
-501 498 0
502 -764 -759 0
-502 764 0
-502 759 0
503 -502 -42 0
-503 502 0
-503 42 0
504 -901 -501 0
-504 901 0
-504 501 0
505 -30 -12 0
-505 30 0
-505 12 0
506 -505 -832 0
-506 505 0
-506 832 0
507 -902 -504 0
-507 902 0
-507 504 0
508 -775 -14 0
-508 775 0
-508 14 0
509 -508 -788 0
-509 508 0
-509 788 0
510 -903 -507 0
-510 903 0
-510 507 0
511 -759 -30 0
-511 759 0
-511 30 0
512 -511 -11 0
-512 511 0
-512 11 0
513 -904 -510 0
-513 904 0
-513 510 0
514 -35 -2 0
-514 35 0
-514 2 0
515 -514 -48 0
-515 514 0
-515 48 0
516 -905 -513 0
-516 905 0
-516 513 0
517 -764 -740 0
-517 764 0
-517 740 0
518 -517 -760 0
-518 517 0
-518 760 0
519 -906 -516 0
-519 906 0
-519 516 0
520 -7 -702 0
-520 7 0
-520 702 0
521 -520 -703 0
-521 520 0
-521 703 0
522 -907 -519 0
-522 907 0
-522 519 0
523 -718 -795 0
-523 718 0
-523 795 0
524 -523 -50 0
-524 523 0
-524 50 0
525 -908 -522 0
-525 908 0
-525 522 0
526 -37 -35 0
-526 37 0
-526 35 0
527 -526 -19 0
-527 526 0
-527 19 0
528 -909 -525 0
-528 909 0
-528 525 0
529 -787 -9 0
-529 787 0
-529 9 0
530 -529 -46 0
-530 529 0
-530 46 0
531 -910 -528 0
-531 910 0
-531 528 0
532 -40 -30 0
-532 40 0
-532 30 0
533 -532 -725 0
-533 532 0
-533 725 0
534 -911 -531 0
-534 911 0
-534 531 0
535 -29 -12 0
-535 29 0
-535 12 0
536 -535 -752 0
-536 535 0
-536 752 0
537 -912 -534 0
-537 912 0
-537 534 0
538 -826 -795 0
-538 826 0
-538 795 0
539 -538 -757 0
-539 538 0
-539 757 0
540 -913 -537 0
-540 913 0
-540 537 0
541 -27 -23 0
-541 27 0
-541 23 0
542 -541 -757 0
-542 541 0
-542 757 0
543 -914 -540 0
-543 914 0
-543 540 0
544 -700 -795 0
-544 700 0
-544 795 0
545 -544 -41 0
-545 544 0
-545 41 0
546 -915 -543 0
-546 915 0
-546 543 0
547 -39 -700 0
-547 39 0
-547 700 0
548 -547 -48 0
-548 547 0
-548 48 0
549 -916 -546 0
-549 916 0
-549 546 0
550 -765 -15 0
-550 765 0
-550 15 0
551 -550 -32 0
-551 550 0
-551 32 0
552 -917 -549 0
-552 917 0
-552 549 0
553 -45 -17 0
-553 45 0
-553 17 0
554 -553 -800 0
-554 553 0
-554 800 0
555 -918 -552 0
-555 918 0
-555 552 0
556 -33 -18 0
-556 33 0
-556 18 0
557 -556 -20 0
-557 556 0
-557 20 0
558 -919 -555 0
-558 919 0
-558 555 0
559 -502 -714 0
-559 502 0
-559 714 0
560 -920 -558 0
-560 920 0
-560 558 0
561 -832 -42 0
-561 832 0
-561 42 0
562 -561 -38 0
-562 561 0
-562 38 0
563 -921 -560 0
-563 921 0
-563 560 0
564 -22 -737 0
-564 22 0
-564 737 0
565 -564 -49 0
-565 564 0
-565 49 0
566 -922 -563 0
-566 922 0
-566 563 0
567 -820 -8 0
-567 820 0
-567 8 0
568 -567 -10 0
-568 567 0
-568 10 0
569 -923 -566 0
-569 923 0
-569 566 0
570 -787 -720 0
-570 787 0
-570 720 0
571 -570 -32 0
-571 570 0
-571 32 0
572 -924 -569 0
-572 924 0
-572 569 0
573 -820 -707 0
-573 820 0
-573 707 0
574 -573 -36 0
-574 573 0
-574 36 0
575 -925 -572 0
-575 925 0
-575 572 0
576 -37 -36 0
-576 37 0
-576 36 0
577 -576 -760 0
-577 576 0
-577 760 0
578 -926 -575 0
-578 926 0
-578 575 0
579 -40 -24 0
-579 40 0
-579 24 0
580 -579 -39 0
-580 579 0
-580 39 0
581 -927 -578 0
-581 927 0
-581 578 0
582 -712 -3 0
-582 712 0
-582 3 0
583 -582 -41 0
-583 582 0
-583 41 0
584 -928 -581 0
-584 928 0
-584 581 0
585 -45 -35 0
-585 45 0
-585 35 0
586 -585 -14 0
-586 585 0
-586 14 0
587 -929 -584 0
-587 929 0
-587 584 0
588 -749 -724 0
-588 749 0
-588 724 0
589 -588 -28 0
-589 588 0
-589 28 0
590 -930 -587 0
-590 930 0
-590 587 0
591 -767 -848 0
-591 767 0
-591 848 0
592 -591 -703 0
-592 591 0
-592 703 0
593 -931 -590 0
-593 931 0
-593 590 0
594 -19 -745 0
-594 19 0
-594 745 0
595 -594 -700 0
-595 594 0
-595 700 0
596 -932 -593 0
-596 932 0
-596 593 0
597 -44 -23 0
-597 44 0
-597 23 0
598 -597 -832 0
-598 597 0
-598 832 0
599 -933 -596 0
-599 933 0
-599 596 0
600 -765 -717 0
-600 765 0
-600 717 0
601 -600 -738 0
-601 600 0
-601 738 0
602 -934 -599 0
-602 934 0
-602 599 0
603 -43 -33 0
-603 43 0
-603 33 0
604 -603 -795 0
-604 603 0
-604 795 0
605 -935 -602 0
-605 935 0
-605 602 0
606 -45 -11 0
-606 45 0
-606 11 0
607 -606 -20 0
-607 606 0
-607 20 0
608 -936 -605 0
-608 936 0
-608 605 0
609 -29 -2 0
-609 29 0
-609 2 0
610 -609 -48 0
-610 609 0
-610 48 0
611 -937 -608 0
-611 937 0
-611 608 0
612 -759 -712 0
-612 759 0
-612 712 0
613 -612 -753 0
-613 612 0
-613 753 0
614 -938 -611 0
-614 938 0
-614 611 0
615 -27 -2 0
-615 27 0
-615 2 0
616 -615 -757 0
-616 615 0
-616 757 0
617 -939 -614 0
-617 939 0
-617 614 0
618 -19 -6 0
-618 19 0
-618 6 0
619 -618 -49 0
-619 618 0
-619 49 0
620 -940 -617 0
-620 940 0
-620 617 0
621 -765 -1 0
-621 765 0
-621 1 0
622 -621 -754 0
-622 621 0
-622 754 0
623 -941 -620 0
-623 941 0
-623 620 0
624 -713 -770 0
-624 713 0
-624 770 0
625 -624 -744 0
-625 624 0
-625 744 0
626 -942 -623 0
-626 942 0
-626 623 0
627 -749 -1 0
-627 749 0
-627 1 0
628 -627 -27 0
-628 627 0
-628 27 0
629 -943 -626 0
-629 943 0
-629 626 0
630 -33 -706 0
-630 33 0
-630 706 0
631 -630 -2 0
-631 630 0
-631 2 0
632 -944 -629 0
-632 944 0
-632 629 0
633 -767 -752 0
-633 767 0
-633 752 0
634 -633 -700 0
-634 633 0
-634 700 0
635 -945 -632 0
-635 945 0
-635 632 0
636 -826 -787 0
-636 826 0
-636 787 0
637 -636 -700 0
-637 636 0
-637 700 0
638 -946 -635 0
-638 946 0
-638 635 0
639 -34 -14 0
-639 34 0
-639 14 0
640 -639 -46 0
-640 639 0
-640 46 0
641 -947 -638 0
-641 947 0
-641 638 0
642 -848 -787 0
-642 848 0
-642 787 0
643 -642 -832 0
-643 642 0
-643 832 0
644 -948 -641 0
-644 948 0
-644 641 0
645 -412 -9 0
-645 412 0
-645 9 0
646 -949 -644 0
-646 949 0
-646 644 0
647 -34 -24 0
-647 34 0
-647 24 0
648 -647 -760 0
-648 647 0
-648 760 0
649 -950 -646 0
-649 950 0
-649 646 0
650 -724 -770 0
-650 724 0
-650 770 0
651 -650 -25 0
-651 650 0
-651 25 0
652 -951 -649 0
-652 951 0
-652 649 0
653 -24 -725 0
-653 24 0
-653 725 0
654 -653 -36 0
-654 653 0
-654 36 0
655 -952 -652 0
-655 952 0
-655 652 0
656 -43 -765 0
-656 43 0
-656 765 0
657 -656 -753 0
-657 656 0
-657 753 0
658 -953 -655 0
-658 953 0
-658 655 0
659 -152 -50 0
-659 152 0
-659 50 0
660 -954 -658 0
-660 954 0
-660 658 0
661 -11 -707 0
-661 11 0
-661 707 0
662 -661 -27 0
-662 661 0
-662 27 0
663 -955 -660 0
-663 955 0
-663 660 0
664 -759 -765 0
-664 759 0
-664 765 0
665 -664 -15 0
-665 664 0
-665 15 0
666 -956 -663 0
-666 956 0
-666 663 0
667 -18 -4 0
-667 18 0
-667 4 0
668 -667 -767 0
-668 667 0
-668 767 0
669 -957 -666 0
-669 957 0
-669 666 0
670 -724 -718 0
-670 724 0
-670 718 0
671 -670 -9 0
-671 670 0
-671 9 0
672 -958 -669 0
-672 958 0
-672 669 0
673 -46 -34 0
-673 46 0
-673 34 0
674 -673 -775 0
-674 673 0
-674 775 0
675 -959 -672 0
-675 959 0
-675 672 0
676 -787 -737 0
-676 787 0
-676 737 0
677 -676 -753 0
-677 676 0
-677 753 0
678 -960 -675 0
-678 960 0
-678 675 0
679 -33 -716 0
-679 33 0
-679 716 0
680 -679 -35 0
-680 679 0
-680 35 0
681 -961 -678 0
-681 961 0
-681 678 0
682 -757 -6 0
-682 757 0
-682 6 0
683 -682 -15 0
-683 682 0
-683 15 0
684 -962 -681 0
-684 962 0
-684 681 0
685 -26 -17 0
-685 26 0
-685 17 0
686 -685 -700 0
-686 685 0
-686 700 0
687 -963 -684 0
-687 963 0
-687 684 0
688 -744 -779 0
-688 744 0
-688 779 0
689 -688 -42 0
-689 688 0
-689 42 0
690 -964 -687 0
-690 964 0
-690 687 0
691 -745 -770 0
-691 745 0
-691 770 0
692 -691 -21 0
-692 691 0
-692 21 0
693 -965 -690 0
-693 965 0
-693 690 0
694 -729 -16 0
-694 729 0
-694 16 0
695 -694 -832 0
-695 694 0
-695 832 0
696 -966 -693 0
-696 966 0
-696 693 0
697 -44 -702 0
-697 44 0
-697 702 0
698 -697 -20 0
-698 697 0
-698 20 0
699 -967 -696 0
-699 967 0
-699 696 0
-700 -3 0
700 3 0
-701 -5 0
701 5 0
-702 -4 0
702 4 0
-703 -6 0
703 6 0
-704 -54 0
704 54 0
-705 -52 0
705 52 0
-706 -7 0
706 7 0
-707 -9 0
707 9 0
-708 -57 0
708 57 0
-709 -60 0
709 60 0
-710 -15 0
710 15 0
-711 -63 0
711 63 0
-712 -16 0
712 16 0
-713 -10 0
713 10 0
-714 -17 0
714 17 0
-715 -66 0
715 66 0
-716 -18 0
716 18 0
-717 -1 0
717 1 0
-718 -13 0
718 13 0
-719 -69 0
719 69 0
-720 -20 0
720 20 0
-721 -72 0
721 72 0
-722 -21 0
722 21 0
-723 -75 0
723 75 0
-724 -22 0
724 22 0
-725 -12 0
725 12 0
-726 -78 0
726 78 0
-727 -81 0
727 81 0
-728 -27 0
728 27 0
-729 -26 0
729 26 0
-730 -84 0
730 84 0
-731 -29 0
731 29 0
-732 -87 0
732 87 0
-733 -90 0
733 90 0
-734 -93 0
734 93 0
-735 -96 0
735 96 0
-736 -35 0
736 35 0
-737 -19 0
737 19 0
-738 -36 0
738 36 0
-739 -99 0
739 99 0
-740 -31 0
740 31 0
-741 -102 0
741 102 0
-742 -105 0
742 105 0
-743 -108 0
743 108 0
-744 -30 0
744 30 0
-745 -11 0
745 11 0
-746 -111 0
746 111 0
-747 -114 0
747 114 0
-748 -117 0
748 117 0
-749 -37 0
749 37 0
-750 -120 0
750 120 0
-751 -123 0
751 123 0
-752 -39 0
752 39 0
-753 -28 0
753 28 0
-754 -38 0
754 38 0
-755 -126 0
755 126 0
-756 -129 0
756 129 0
-757 -41 0
757 41 0
-758 -132 0
758 132 0
-759 -33 0
759 33 0
-760 -32 0
760 32 0
-761 -135 0
761 135 0
-762 -138 0
762 138 0
-763 -141 0
763 141 0
-764 -43 0
764 43 0
-765 -25 0
765 25 0
-766 -144 0
766 144 0
-767 -46 0
767 46 0
-768 -147 0
768 147 0
-769 -150 0
769 150 0
-770 -8 0
770 8 0
-771 -153 0
771 153 0
-772 -156 0
772 156 0
-773 -159 0
773 159 0
-774 -162 0
774 162 0
-775 -47 0
775 47 0
-776 -165 0
776 165 0
-777 -168 0
777 168 0
-778 -24 0
778 24 0
-779 -14 0
779 14 0
-780 -171 0
780 171 0
-781 -174 0
781 174 0
-782 -177 0
782 177 0
-783 -180 0
783 180 0
-784 -183 0
784 183 0
-785 -186 0
785 186 0
-786 -189 0
786 189 0
-787 -34 0
787 34 0
-788 -48 0
788 48 0
-789 -192 0
789 192 0
-790 -195 0
790 195 0
-791 -198 0
791 198 0
-792 -201 0
792 201 0
-793 -204 0
793 204 0
-794 -207 0
794 207 0
-795 -2 0
795 2 0
-796 -210 0
796 210 0
-797 -213 0
797 213 0
-798 -216 0
798 216 0
-799 -23 0
799 23 0
-800 -49 0
800 49 0
-801 -219 0
801 219 0
-802 -222 0
802 222 0
-803 -225 0
803 225 0
-804 -228 0
804 228 0
-805 -231 0
805 231 0
-806 -234 0
806 234 0
-807 -237 0
807 237 0
-808 -240 0
808 240 0
-809 -243 0
809 243 0
-810 -246 0
810 246 0
-811 -249 0
811 249 0
-812 -252 0
812 252 0
-813 -255 0
813 255 0
-814 -258 0
814 258 0
-815 -261 0
815 261 0
-816 -264 0
816 264 0
-817 -267 0
817 267 0
-818 -42 0
818 42 0
-819 -270 0
819 270 0
-820 -40 0
820 40 0
-821 -273 0
821 273 0
-822 -276 0
822 276 0
-823 -279 0
823 279 0
-824 -282 0
824 282 0
-825 -285 0
825 285 0
-826 -44 0
826 44 0
-827 -288 0
827 288 0
-828 -291 0
828 291 0
-829 -294 0
829 294 0
-830 -297 0
830 297 0
-831 -300 0
831 300 0
-832 -50 0
832 50 0
-833 -303 0
833 303 0
-834 -306 0
834 306 0
-835 -309 0
835 309 0
-836 -312 0
836 312 0
-837 -315 0
837 315 0
-838 -318 0
838 318 0
-839 -321 0
839 321 0
-840 -324 0
840 324 0
-841 -327 0
841 327 0
-842 -330 0
842 330 0
-843 -333 0
843 333 0
-844 -336 0
844 336 0
-845 -339 0
845 339 0
-846 -342 0
846 342 0
-847 -345 0
847 345 0
-848 -45 0
848 45 0
-849 -348 0
849 348 0
-850 -351 0
850 351 0
-851 -354 0
851 354 0
-852 -357 0
852 357 0
-853 -360 0
853 360 0
-854 -363 0
854 363 0
-855 -366 0
855 366 0
-856 -369 0
856 369 0
-857 -372 0
857 372 0
-858 -375 0
858 375 0
-859 -378 0
859 378 0
-860 -381 0
860 381 0
-861 -384 0
861 384 0
-862 -387 0
862 387 0
-863 -390 0
863 390 0
-864 -393 0
864 393 0
-865 -396 0
865 396 0
-866 -398 0
866 398 0
-867 -401 0
867 401 0
-868 -404 0
868 404 0
-869 -407 0
869 407 0
-870 -410 0
870 410 0
-871 -413 0
871 413 0
-872 -416 0
872 416 0
-873 -419 0
873 419 0
-874 -422 0
874 422 0
-875 -425 0
875 425 0
-876 -428 0
876 428 0
-877 -431 0
877 431 0
-878 -434 0
878 434 0
-879 -437 0
879 437 0
-880 -440 0
880 440 0
-881 -443 0
881 443 0
-882 -446 0
882 446 0
-883 -449 0
883 449 0
-884 -452 0
884 452 0
-885 -455 0
885 455 0
-886 -458 0
886 458 0
-887 -461 0
887 461 0
-888 -464 0
888 464 0
-889 -467 0
889 467 0
-890 -470 0
890 470 0
-891 -473 0
891 473 0
-892 -476 0
892 476 0
-893 -479 0
893 479 0
-894 -482 0
894 482 0
-895 -485 0
895 485 0
-896 -488 0
896 488 0
-897 -491 0
897 491 0
-898 -494 0
898 494 0
-899 -497 0
899 497 0
-900 -500 0
900 500 0
-901 -503 0
901 503 0
-902 -506 0
902 506 0
-903 -509 0
903 509 0
-904 -512 0
904 512 0
-905 -515 0
905 515 0
-906 -518 0
906 518 0
-907 -521 0
907 521 0
-908 -524 0
908 524 0
-909 -527 0
909 527 0
-910 -530 0
910 530 0
-911 -533 0
911 533 0
-912 -536 0
912 536 0
-913 -539 0
913 539 0
-914 -542 0
914 542 0
-915 -545 0
915 545 0
-916 -548 0
916 548 0
-917 -551 0
917 551 0
-918 -554 0
918 554 0
-919 -557 0
919 557 0
-920 -559 0
920 559 0
-921 -562 0
921 562 0
-922 -565 0
922 565 0
-923 -568 0
923 568 0
-924 -571 0
924 571 0
-925 -574 0
925 574 0
-926 -577 0
926 577 0
-927 -580 0
927 580 0
-928 -583 0
928 583 0
-929 -586 0
929 586 0
-930 -589 0
930 589 0
-931 -592 0
931 592 0
-932 -595 0
932 595 0
-933 -598 0
933 598 0
-934 -601 0
934 601 0
-935 -604 0
935 604 0
-936 -607 0
936 607 0
-937 -610 0
937 610 0
-938 -613 0
938 613 0
-939 -616 0
939 616 0
-940 -619 0
940 619 0
-941 -622 0
941 622 0
-942 -625 0
942 625 0
-943 -628 0
943 628 0
-944 -631 0
944 631 0
-945 -634 0
945 634 0
-946 -637 0
946 637 0
-947 -640 0
947 640 0
-948 -643 0
948 643 0
-949 -645 0
949 645 0
-950 -648 0
950 648 0
-951 -651 0
951 651 0
-952 -654 0
952 654 0
-953 -657 0
953 657 0
-954 -659 0
954 659 0
-955 -662 0
955 662 0
-956 -665 0
956 665 0
-957 -668 0
957 668 0
-958 -671 0
958 671 0
-959 -674 0
959 674 0
-960 -677 0
960 677 0
-961 -680 0
961 680 0
-962 -683 0
962 683 0
-963 -686 0
963 686 0
-964 -689 0
964 689 0
-965 -692 0
965 692 0
-966 -695 0
966 695 0
-967 -698 0
967 698 0
699 0
